Read MPS format model from file dat/rmp/DER_96_8192_20.mps
Reading time = 0.86 seconds
: 8288 rows, 28960 columns, 2479894 nonzeros
Gurobi Optimizer version 9.0.0 build v9.0.0rc2 (linux64)
Optimize a model with 8288 rows, 28960 columns and 2479894 nonzeros
Model fingerprint: 0x901f2edd
Coefficient statistics:
  Matrix range     [1e-04, 1e+01]
  Objective range  [8e-01, 1e+03]
  Bounds range     [5e+04, 5e+04]
  RHS range        [1e+00, 1e+00]
Ordering time: 0.02s

Barrier statistics:
 AA' NZ     : 7.412e+05
 Factor NZ  : 8.299e+05 (roughly 20 MBytes of memory)
 Factor Ops : 8.669e+07 (less than 1 second per iteration)
 Threads    : 1

                  Objective                Residual
Iter       Primal          Dual         Primal    Dual     Compl     Time
   0   3.14661224e+09 -3.80685156e+08  2.19e+07 2.43e-02  1.29e+06     1s
   1   6.95130149e+07 -6.52034922e+07  4.31e+05 3.64e-12  2.76e+04     1s
   2   6.77882573e+06 -1.51038180e+07  4.07e+04 3.64e-12  2.96e+03     1s
   3   9.88217543e+04 -6.35519528e+06  1.94e+02 5.46e-12  2.30e+02     1s
   4   5.73560748e+04  3.39448055e+04  1.23e-10 5.46e-12  8.06e-01     1s
   5   5.70256115e+04  3.91752230e+04  1.21e-10 5.46e-12  6.14e-01     2s
   6   5.66008462e+04  5.17714413e+04  9.91e-11 3.64e-12  1.66e-01     2s
   7   5.62283380e+04  5.53263216e+04  1.10e-10 3.64e-12  3.10e-02     2s
   8   5.59584208e+04  5.56185524e+04  2.93e-10 1.82e-12  1.17e-02     2s
   9   5.59173623e+04  5.57156535e+04  4.60e-10 1.82e-12  6.94e-03     2s
  10   5.58729161e+04  5.57401775e+04  3.98e-10 1.82e-12  4.57e-03     3s
  11   5.58373412e+04  5.57615835e+04  1.24e-09 3.64e-12  2.61e-03     3s
  12   5.58195589e+04  5.57772352e+04  7.49e-10 1.82e-12  1.46e-03     3s
  13   5.58146695e+04  5.57806932e+04  1.14e-09 1.82e-12  1.17e-03     3s
  14   5.58102932e+04  5.57838302e+04  1.68e-09 1.82e-12  9.11e-04     3s
  15   5.58059038e+04  5.57861898e+04  2.46e-09 1.82e-12  6.78e-04     4s
  16   5.58009474e+04  5.57878422e+04  3.55e-09 1.82e-12  4.51e-04     4s
  17   5.57984797e+04  5.57888942e+04  5.85e-09 3.64e-12  3.30e-04     4s
  18   5.57974233e+04  5.57892445e+04  5.59e-09 3.64e-12  2.81e-04     4s
  19   5.57958753e+04  5.57903183e+04  8.84e-09 1.82e-12  1.91e-04     4s
  20   5.57945565e+04  5.57909085e+04  5.24e-09 1.82e-12  1.26e-04     5s
  21   5.57938853e+04  5.57911243e+04  4.07e-09 1.82e-12  9.50e-05     5s
  22   5.57933894e+04  5.57912447e+04  7.04e-09 1.82e-12  7.38e-05     5s
  23   5.57928525e+04  5.57913606e+04  5.56e-09 1.82e-12  5.13e-05     5s
  24   5.57923369e+04  5.57914998e+04  1.28e-08 3.64e-12  2.88e-05     5s
  25   5.57920993e+04  5.57915263e+04  1.78e-08 1.82e-12  1.97e-05     6s
  26   5.57918698e+04  5.57915431e+04  4.02e-08 1.82e-12  1.12e-05     6s
  27   5.57917490e+04  5.57915569e+04  7.96e-08 3.64e-12  6.61e-06     6s
  28   5.57916455e+04  5.57915660e+04  1.31e-07 1.82e-12  2.74e-06     6s
  29   5.57916043e+04  5.57915674e+04  2.84e-07 3.64e-12  1.27e-06     6s
  30   5.57915798e+04  5.57915686e+04  9.75e-07 3.64e-12  3.85e-07     7s
  31   5.57915711e+04  5.57915686e+04  1.68e-06 1.82e-12  8.51e-08     7s
  32   5.57915688e+04  5.57915687e+04  1.43e-06 1.82e-12  2.75e-09     7s
  33   5.57915687e+04  5.57915687e+04  2.30e-07 1.82e-12  2.82e-12     7s

Barrier solved model in 33 iterations and 7.18 seconds
Optimal objective 5.57915687e+04

Solve time: 7.185012211
Barrier iterations: 33
